<number of tasks>
7

<cycle time>
10

<task times>
1 1
2 5
3 4
4 3
5 5
6 6
7 5

<precedence relations>
1,2
1,4
2,3
2,5
4,7
5,6

<setup times forward>
2,5:1
2,7:1
3,5:1
3,7:1
4,5:1
4,7:1
5,3:1
5,4:1
5,6:1
6,7:1
7,2:1
7,3:1
7,6:1

<setup times backward>
5,1:1
5,2:1
5,3:1
5,4:1
7,1:1
7,2:1
7,3:1
7,4:1
7,6:1

<end>

<optimal SALBP-1 value>
3


<rand seed>
467321153

<Lower Bounds>
Lm1=3
Lms1=3
Lm2=3
Lm3=3
Lm4=3
Best=3

<Optimal Stations (Iterations: 10)>
4
